# Initialization

units		  metal
dimension 	      3
boundary	  f f f
atom_style	 atomic


# Atom Definition

read_data atom_definition.txt


# Settings

pair_style meam/c
pair_coeff	* * library.meam XXX NULL XXX

velocity         all create 100 12345 mom yes rot yes dist gaussian
timestep         0.002
fix              1 all nvt temp 100 1000 $(100.0*dt) drag 0.0 tchain 1
fix              2 all recenter INIT INIT INIT


dump myDump all custom 200 trajectory.txt id type x y z
dump_modify myDump sort id

thermo 200


# Run a simulation

run              2000000

print "All done!" 
