# Initialization

units		  metal
dimension 	      3
boundary	  f f f
atom_style	 atomic


# Atom Definition

read_data atom_definition.txt


# Settings

pair_style eam/alloy
pair_coeff	* * CuAgAu_Zhou04.eam.alloy XXX YYY

velocity         all create 600 12345 mom yes rot yes dist gaussian
timestep         0.002
fix              1 all nvt temp 600 600 $(100.0*dt) drag 0.0 tchain 1
fix              2 all recenter INIT INIT INIT


dump myDump all custom 200 trajectory.txt id type x y z
dump_modify myDump sort id

thermo 200


# Run a simulation

run              500000

print "All done!" 
