# Initialization

units		  metal
dimension 	      3
boundary	  f f f
atom_style	 atomic


# Atom Definition

read_data atom_definition.txt


# Settings

pair_style meam/c
pair_coeff	* * library.meam Ni NULL Ni

velocity         all create 1200.0 12345 mom yes rot yes dist gaussian
timestep         0.003
fix              1 all nve
fix              2 all recenter INIT INIT INIT


dump myDump all custom 200 trajectory.txt id type x y z
dump_modify myDump sort id

thermo_style custom step temp ke pe etotal
thermo 200


# Run a simulation

run              10000

print "All done!" 
