&control
    calculation='scf',
    prefix='graphene',
    tstress = .true.
    tprnfor = .true.    
    pseudo_dir = '../Pseudo/',        
    outdir='./OUT/',
/
 &system
    ibrav= 0, celldm(1) =1., nat= 33, ntyp= 2,
    ecutwfc =10., ecutrho =300., 
    occupations='smearing',
    smearing='gaussian',
    degauss=0.05,
 /
 &electrons
    conv_thr = 1.0d-6
 /
 &ions
     ion_dynamics = 'bfgs'
 /
 &cell
     cell_dynamics = 'bfgs',
     cell_dofree   = '2Dxy',
     press_conv_thr = 0.1
 /	      
ATOMIC_SPECIES
C  12.0107 C.pbe.UPF
K  39.098  K.pbe.UPF
CELL_PARAMETERS
        16.112528245   9.302572520  0.000000000
        16.112528245  -9.302572520  0.000000000
         0.000000000   0.000000000 27.617528796

ATOMIC_POSITIONS {crystal}
C            -0.0008461984       -0.0008461984        0.0006041440
C             0.0824700102        0.0824700102        0.0003922840
C             0.2490725037       -0.0008172877        0.0004801421
C             0.3324902934        0.0823075654        0.0004092227
C             0.4991559505       -0.0010493341        0.0005754328
C             0.5826875988        0.0820639126        0.0004949819
C             0.7493037535       -0.0010101349        0.0007435389
C             0.8326022905        0.0823417748        0.0007264054
C            -0.0008172877        0.2490725037        0.0004801421
C             0.0823075654        0.3324902934        0.0004092227
C             0.2489573453        0.2489573453        0.0001784387
C             0.3323101473        0.3323101473       -0.0006887359
C             0.4993827047        0.2487495242       -0.0003507134
C             0.5828625912        0.3323014791        0.0001755495
C             0.7495094072        0.2489697369        0.0007445786
C             0.8326014961        0.3325184273        0.0007001318
C            -0.0010493341        0.4991559505        0.0005754328
C             0.0820639126        0.5826875988        0.0004949819
C             0.2487495242        0.4993827047       -0.0003507134
C             0.3323014791        0.5828625912        0.0001755495
C             0.4993273965        0.4993273965        0.0004190743
C             0.5826265263        0.5826265263        0.0009961640
C             0.7492737587        0.4991129763        0.0008850275
C             0.8324063423        0.5825334911        0.0008346057
C            -0.0010101349        0.7493037535        0.0007435389
C             0.0823417748        0.8326022905        0.0007264054
C             0.2489697369        0.7495094072        0.0007445786
C             0.3325184273        0.8326014961        0.0007001318
C             0.4991129763        0.7492737587        0.0008850275
C             0.5825334911        0.8324063423        0.0008346057
C             0.7491295038        0.7491295038        0.0007905476
C             0.8324404254        0.8324404254        0.0007742356
K             0.4025473023        0.4025473023        0.1836960408

K_POINTS {automatic}
2 2 1 0 0 0
