&PROJWFC                                                                                                              
  prefix='graphene',
  outdir= './OUT/',
  ngauss=0
  degauss=0.01
  Emin=-15.0,Emax=10.0,DeltaE=0.05
  filpdos='graphene.pdos.dat'
/
