&bands
    prefix='graphene',
    outdir='./OUT/'
    filband='graphene.bands.dat'
    plot_2d=.false.
    lsym=.false.
/
