&control
    calculation='vc-relax',
    prefix='graphene',
    tstress = .true.
    tprnfor = .true.    
    pseudo_dir = '../Pseudo/',        
    outdir='./OUT/',
/
 &system
    ibrav= 4, celldm(1) =4.653159815, celldm(3)=4.85,
    nat= 2, ntyp= 1, nbnd = 12,
    ecutwfc =30., ecutrho =300., 
    occupations='smearing',
    smearing='gaussian',
    degauss=0.05,
 /
 &electrons
    conv_thr = 1.0d-6
 /
 &ions
    ion_dynamics = 'bfgs'
 /
 &cell
     cell_dynamics = 'bfgs',
     cell_dofree   = '2Dxy'
     press_conv_thr = 0.1
 /
ATOMIC_SPECIES
C  12.0107 C.pbe.UPF
ATOMIC_POSITIONS {crystal}
C    0.0000000    0.0000000    0.000000
C    0.3333333    0.6666666    0.000000
K_POINTS {automatic}
8 8 1 0 0 0
